# --- TIP4P/2005 force field Parameters ---

# From https://docs.lammps.org/Howto_tip4p.html (TIP4P/Ice Section)

mass 1 15.9994 # oxygen
mass 2 1.008 # hydrogen

pair_coeff 1 1 lj/cut/tip4p/long 0.009142890072 3.1668 		# Oxygen-Oxygen, TIP4P/Ice
pair_coeff 2 2 lj/cut/tip4p/long 0 1.0				# Hydrogen-Hydrogen, TIP4P/Ice

pair_coeff 1 2 lj/cut/tip4p/long 0 1.0				# OH Bond, TIP4P/Ice

bond_coeff 1 0 0.9572 						# r_0 of OH Bond, TIP4P/Ice
angle_coeff 1 0 104.52 						# theta_0 of HOH Angle, TIP4P/Ice

# -- Gold (Added on) --

# From the following link/paper, which optimized gold for accurate simulations with biomolecular force fields (including OPLS)

mass 3 196.967 # Gold (Au)

pair_coeff * * eam/fs FeAu-eam-LJ.fs NULL NULL Au NULL NULL NULL NULL NULL  # Gold-Gold

variable fccAu equal 4.065 	# Lattice Constant for FCC Au (Gold) Lattice
# pair_coeff 3 3 lj/cut/coul/cut 0.2294 2.951 # Gold-Gold 12-6 LJ Potential Parameters (in eV and Angstroms)

# -- Gold-Water --

pair_coeff 1 3 morse 0.019278 0.905 4.2   # Au-O
pair_coeff 2 3 morse 0.00082914 1.41 4.14   # Au-H

# ---- Methane -----

# Source: (OPLAA-UA from https://www.researchgate.net/publication/362678847_All-Atom_Molecular_Dynamics_of_Pure_Water-Methane_Gas_Hydrate_Systems_under_Pre-Nucleation_Conditions_A_Direct_Comparison_between_Experiments_and_Simulations_of_Transport_Properties_for_the_Tip4pIce_W) 

#pair_coeff 4 4 lj/cut 0.00286203 3.5
#pair_coeff 4 5 lj/cut 0.0 0.0 
#pair_coeff 5 5 lj/cut 0.00130092 2.5

# -- Methane-Water and Methane-Gold --

#pair_coeff 1 1 lj/cut/tip4p/long 0.009142890072 3.1668	#O-O
#pair_coeff 2 2 lj/cut/tip4p/long 0 0			#H-H
#pair_coeff 3 3 lj/cut/coul/cut 0.2294 2.951 # Gold-Gold 12-6 LJ Potential Parameters (in eV and Angstroms)
#pair_coeff 4 4 lj/cut 0.00286203 3.5 		#C-C
#pair_coeff 4 5 lj/cut 0.0 0.0 			#C-H
#pair_coeff 5 5 lj/cut 0.00130092 2.5 		#H-H
#pair_coeff 6 6 lj/cut 0.0061527 3.798 # N-N eV and Angstroms
# pair_coeff 7 7 lj/cut 0.0061527 1.0 1.122462 # Dummy Atoms; Cross-coefficients already set below
#pair_coeff 8 8 0.0116381046 2.67908566492 # mW-mW "LJ" Parameters (to use for hybrid potentials w/Lorentz-Bertehelot mixing rules...) 

# Methane Carbon - everything Else

pair_coeff 1 4 lj/cut/tip4p/long 0.00511539105 3.3334
pair_coeff 2 4 lj/cut/tip4p/long 0.0 2.25
pair_coeff 3 4 lj/cut/tip4p/long 0.02562322544 3.2255

#Methane Hydrogen - Everything Else

pair_coeff 1 5 lj/cut/tip4p/long 0.00344879233 2.8334
pair_coeff 2 5 lj/cut/tip4p/long 0.0 1.75
pair_coeff 3 5 lj/cut/tip4p/long 0.01727515696 2.7255

# -- Nitrogen-Water --

pair_coeff 1 6 lj/cut 0.00750023064 3.4824 # O-N
pair_coeff 2 6 lj/cut 0 2.399

# -- Nitrogen-Gold --

pair_coeff 3 6 lj/cut 0.03756899492 3.3745

# -- Nitrogen-Methane --

pair_coeff 4 6 lj/cut/tip4p/long 0.00419633315 3.649
pair_coeff 5 6 lj/cut/tip4p/long 0.00282916427 3.149

# -- Dummy Atoms / LJ Walls with everything else --

mass 7 1e-10

pair_coeff 7 8 lj/cut 0.001 1.0 1.122462
pair_coeff 7 7 lj/cut 0.001 1.0 1.122462
pair_coeff 6 7 lj/cut 0.001 1.0 1.122462
pair_coeff 5 7 lj/cut 0.001 1.0 1.122462
pair_coeff 4 7 lj/cut 0.001 1.0 1.122462
pair_coeff 3 7 lj/cut 0.001 1.0 1.122462
pair_coeff 2 7 lj/cut 0.001 1.0 1.122462
pair_coeff 1 7 lj/cut 0.001 1.0 1.122462











# --------------------- PARAMETER Files (All Combined here) ------------------------



# --------- N2.parm ---------

# LAMMPS parameter file 
# Created using atb2lammps 
# https://github.com/simongravelle/atb2lammps

mass 6 14.0067 

pair_coeff 6 6 lj/cut 0.0061527 3.798 # eV and Angstroms

bond_coeff 2 0 1.1 # Make sure to convert units from Real to Metal, if needed! 
# Also, this value (77.7320413) is HUGE!!! The N=N Triple-bond is one of the strongest bonds in nature, which reflects the significant energy required to stretch or compress this strong triple-bond, which is much stronger than singe or double bonds commonly found in other molecules. 
# Update: Converted the nitrogen molecules to rigid, so I made the bond value zero so that I can have a larger timestep 






# --------- MethaneCH4.parm ------------

# LAMMPS parameter file 

mass 4 12.011 
mass 5 1.008 

pair_coeff 4 4 lj/cut 0.00286203 3.5
pair_coeff 4 5 lj/cut 0.0 0.0 
pair_coeff 5 5 lj/cut 0.00130092 2.5 


# Bond and angle coefficient values from methane-tip4p water paper mentioned above:
# Created using atb2lammps 
# https://github.com/simongravelle/atb2lammps

bond_coeff 3 15.14596408 1.094 # Make sure to convert units from Real to Metal, if needed! 

angle_coeff 2 2.05900061 109.5 # Make sure to convert units from Real to Metal, if needed!




# ---------- mW.parm - parameters for mW model of water -------------

mass 8 18.015 # mass of simplified "United-Atom" mW model of H2O

pair_coeff * * sw mW.sw NULL NULL NULL NULL NULL NULL NULL mW 

# pair_coeff 1 1 lj/cut/coul/cut 0.187593 3.000                # Gold-Gold 12-6 LJ Potential Parameters (in eV and Angstroms)

# Hybrid Potentials with mW Water model (using Lorentz-Berthelot Mixing Rules!) 
pair_coeff 1 8 lj/cut 0 0 # Oxygen-mW
pair_coeff 2 8 lj/cut 0 0 # TIP4P Hydrogen-mW
pair_coeff 3 8 lj/cut 0.0996155523 2.67908566492 # Gold-Mw
pair_coeff 4 8 lj/cut 0.00577136071 3.29477141623 # Methane C-mW
pair_coeff 5 8 lj/cut 0.00389104652 2.79477141623 # Methane H-mW
pair_coeff 6 8 lj/cut 0.00846201903 3.119632387 # Nitrogen-mW
pair_coeff 7 8 lj/cut 0 0 # Dummy Atoms-mW
#pair_coeff 8 8 0.0116381046 3.08954283246 # mW-mW "LJ" Parameters (to use for hybrid potentials w/Lorentz-Bertehelot mixing rules...) 

# Advanced Space Social Media Intern Position -- what if every space company starts hiring this now? - Could be an opportunity. 
# Especially for these small startups in particular, it could be a great avenue for attracting the best talent. Both in discovery, and also in hyping up what they do. 

